0 7975241
325 7657686
650 7438820
975 7373013
1300 7335918
1625 7296515
1950 7268371
2275 7245971
2600 7228011
2925 7212956
3250 7198985
3575 7180993
3900 7159860
4225 7148515
4550 7146474
4875 7145686
5200 7144899
5525 7144194
5850 7143791
6175 7142843
6500 7142647
6825 7142452
7150 7142264
7475 7142151
7800 7142088
8125 7142084
8450 7142069
